p cnf 1635 2231
-5 0
-6 0
-7 0
-10 0
-11 0
-12 0
-13 0
-14 0
-15 0
-16 0
-17 0
-18 0
-20 0
-21 0
-22 0
-23 0
-24 0
-25 0
-31 0
-32 0
-33 0
-35 0
-36 0
-37 0
-54 0
-55 0
-56 0
-57 0
-58 0
-67 0
-68 0
-69 0
-70 0
-71 0
-72 0
-84 0
-85 0
-87 0
-89 0
-90 0
-91 0
-92 0
-93 0
-96 0
-102 0
-105 0
-116 0
-117 0
-119 0
-120 0
-128 0
-129 0
-130 0
-131 0
-133 0
-135 0
-138 0
-139 0
-140 0
-141 0
-142 0
-143 0
-144 0
-146 0
-152 0
-153 0
-154 0
-155 0
-157 0
-158 0
-159 0
-161 0
-162 0
-163 0
-164 0
165 0
-166 0
-167 0
-168 0
-171 0
-182 0
-183 0
-184 0
-185 0
-186 0
-190 0
-191 0
-197 0
-204 0
-206 0
-208 0
-215 0
-218 0
-219 0
-220 0
-221 0
-222 0
-223 0
-224 0
-225 0
-226 0
-227 0
-228 0
-229 0
-232 0
-241 0
-242 0
-244 0
-247 0
-248 0
-250 0
-259 0
-262 0
-264 0
-267 0
-268 0
-269 0
-271 0
-272 0
-273 0
-274 0
-275 0
-276 0
-290 0
-291 0
-298 0
-299 0
-300 0
-301 0
-302 0
-308 0
-309 0
-310 0
-311 0
-312 0
-317 0
-318 0
-322 0
-323 0
-327 0
-330 0
-331 0
-332 0
-333 0
-334 0
-335 0
-336 0
-337 0
-339 0
-340 0
-341 0
-342 0
-343 0
-344 0
-345 0
-346 0
-347 0
-348 0
-349 0
-350 0
-351 0
-352 0
-353 0
-355 0
-356 0
-357 0
-358 0
-359 0
-360 0
-361 0
-362 0
-363 0
-364 0
-365 0
-366 0
-367 0
-368 0
-369 0
-370 0
-371 0
-372 0
-373 0
-374 0
-375 0
-376 0
-377 0
-378 0
-379 0
-380 0
-381 0
-382 0
-383 0
-384 0
-385 0
-387 0
-388 0
-390 0
-391 0
-393 0
-394 0
-395 0
-396 0
-397 0
-398 0
-399 0
-400 0
-401 0
-402 0
-403 0
-404 0
-405 0
-406 0
-407 0
-408 0
-409 0
-410 0
-411 0
-412 0
-413 0
-414 0
-415 0
-416 0
-417 0
-418 0
-419 0
-420 0
-421 0
-422 0
-423 0
-425 0
-426 0
-427 0
-428 0
-429 0
-430 0
-431 0
-432 0
-433 0
-434 0
-435 0
-436 0
-437 0
-438 0
-439 0
-440 0
-441 0
-442 0
-443 0
-444 0
-445 0
-446 0
-447 0
-448 0
-449 0
-450 0
-451 0
-452 0
-453 0
-454 0
-455 0
-456 0
-457 0
-458 0
-459 0
-460 0
-461 0
-462 0
-463 0
-464 0
-465 0
-466 0
-467 0
-468 0
-470 0
-471 0
-472 0
-473 0
-475 0
-477 0
-478 0
-479 0
-480 0
-481 0
-482 0
-484 0
-485 0
-486 0
-487 0
-488 0
-489 0
-490 0
-492 0
-493 0
-494 0
-495 0
-496 0
-497 0
-498 0
-499 0
-500 0
-501 0
-531 0
-532 0
-533 0
-534 0
-535 0
-536 0
-537 0
-538 0
-539 0
-540 0
-541 0
-542 0
-545 0
-546 0
-561 0
-562 0
-563 0
-564 0
-566 0
-567 0
-568 0
-569 0
-570 0
-579 0
-580 0
-581 0
-582 0
-583 0
-584 0
-585 0
586 0
-587 0
-588 0
-589 0
-590 0
-591 0
-592 0
-593 0
-594 0
-595 0
-596 0
-600 0
601 0
-603 0
-604 0
-605 0
-606 0
-607 0
-608 0
-609 0
-610 0
-611 0
-612 0
-613 0
-614 0
-615 0
-616 0
-617 0
-618 0
-619 0
-620 0
-621 0
-622 0
-623 0
-624 0
-625 0
-626 0
-627 0
-628 0
-629 0
-630 0
-631 0
-632 0
-633 0
636 0
637 0
-642 0
-643 0
-644 0
-645 0
-646 0
-647 0
-648 0
-649 0
-650 0
-651 0
-652 0
-653 0
-654 0
-655 0
-656 0
-657 0
-658 0
-659 0
-660 0
-661 0
-662 0
-663 0
-664 0
-665 0
-666 0
-667 0
-668 0
-669 0
-670 0
-671 0
-672 0
-673 0
-674 0
-675 0
-676 0
-677 0
-678 0
-679 0
-680 0
-681 0
-682 0
-683 0
-684 0
-685 0
-686 0
-687 0
-688 0
-689 0
-690 0
-691 0
-738 0
-739 0
-740 0
-741 0
-742 0
-743 0
-744 0
-745 0
-746 0
-747 0
-748 0
-749 0
-750 0
-751 0
-752 0
-753 0
-754 0
-755 0
-756 0
-757 0
-758 0
-759 0
-760 0
-761 0
-762 0
-763 0
-764 0
-765 0
-766 0
-767 0
-768 0
-769 0
-770 0
-771 0
-772 0
-773 0
-774 0
-775 0
-776 0
-777 0
-778 0
-779 0
-780 0
-781 0
-782 0
-783 0
-784 0
-785 0
-786 0
-787 0
-788 0
-789 0
-790 0
-791 0
-792 0
-793 0
-794 0
-795 0
-796 0
-797 0
-798 0
-799 0
-800 0
-801 0
-802 0
-803 0
-804 0
-805 0
-806 0
-807 0
-808 0
-809 0
-810 0
-811 0
-812 0
-813 0
-814 0
-815 0
-816 0
-817 0
-818 0
-819 0
-820 0
-821 0
-822 0
-823 0
-824 0
-825 0
-826 0
-827 0
-828 0
-829 0
-830 0
-831 0
-832 0
-833 0
-834 0
-835 0
-836 0
-837 0
-838 0
-839 0
-840 0
-841 0
-842 0
-843 0
-844 0
-845 0
-846 0
-847 0
-848 0
-849 0
-850 0
-851 0
-852 0
-853 0
-854 0
-855 0
-856 0
-857 0
-858 0
-859 0
-860 0
-861 0
-862 0
-863 0
-864 0
-865 0
-866 0
-867 0
-868 0
-869 0
-870 0
-871 0
-872 0
-873 0
-874 0
-875 0
-876 0
-877 0
-878 0
-879 0
-880 0
-881 0
-882 0
-883 0
-884 0
-885 0
-886 0
-887 0
-888 0
-889 0
-890 0
-891 0
-892 0
-893 0
-894 0
-895 0
-896 0
-897 0
-898 0
-899 0
-900 0
-901 0
-902 0
-903 0
-904 0
-905 0
-906 0
-907 0
-908 0
-909 0
-910 0
-911 0
-912 0
-913 0
-914 0
-915 0
-916 0
-917 0
-918 0
-919 0
-920 0
-921 0
-922 0
-923 0
-924 0
-925 0
-926 0
-927 0
-928 0
-929 0
-930 0
-931 0
-932 0
-933 0
-934 0
-935 0
-936 0
-937 0
-938 0
-939 0
-940 0
-941 0
-942 0
-943 0
-944 0
-945 0
-946 0
-947 0
-948 0
-949 0
-950 0
-951 0
-952 0
-953 0
-954 0
-955 0
-956 0
-957 0
-958 0
-959 0
-960 0
-961 0
-962 0
-963 0
-964 0
-965 0
-966 0
-967 0
-968 0
-969 0
-970 0
-971 0
-972 0
-973 0
-974 0
-975 0
-976 0
-977 0
-978 0
-979 0
-980 0
-981 0
-982 0
-983 0
-984 0
-985 0
-986 0
-987 0
-988 0
-989 0
-990 0
-991 0
-992 0
-993 0
-994 0
-995 0
-996 0
-997 0
-998 0
-999 0
-1000 0
-1001 0
-1002 0
-1003 0
-1004 0
-1005 0
-1006 0
-1007 0
-1008 0
-1009 0
-1010 0
-1011 0
-1012 0
-1013 0
-1014 0
-1015 0
-1016 0
-1017 0
-1018 0
-1019 0
-1020 0
-1021 0
-1022 0
-1023 0
-1024 0
-1025 0
-1026 0
-1027 0
-1028 0
-1029 0
-1030 0
-1031 0
-1032 0
-1033 0
-1034 0
-1035 0
-1036 0
-1037 0
-1038 0
-1039 0
-1040 0
-1041 0
-1042 0
-1043 0
-1044 0
-1045 0
-1046 0
-1047 0
-1048 0
-1049 0
-1050 0
-1051 0
-1052 0
-1053 0
-1054 0
-1055 0
-1056 0
-1057 0
-1058 0
-1059 0
-1060 0
-1061 0
-1062 0
-1063 0
-1064 0
-1065 0
-1066 0
-1067 0
-1068 0
-1069 0
-1070 0
-1071 0
-1072 0
-1073 0
-1074 0
-1075 0
-1076 0
-1077 0
-1078 0
-1079 0
-1080 0
-1081 0
-1082 0
-1083 0
-1084 0
-1085 0
-1086 0
-1087 0
-1088 0
-1089 0
-1090 0
-1091 0
-1092 0
-1093 0
-1094 0
-1095 0
-1096 0
-1097 0
-1098 0
-1099 0
-1100 0
-1101 0
-1102 0
-1103 0
-1104 0
-1105 0
-1106 0
-1107 0
-1108 0
-1109 0
-1110 0
-1111 0
-1112 0
-1113 0
-1114 0
-1115 0
-1116 0
-1117 0
-1118 0
-1119 0
-1120 0
-1121 0
-1122 0
-1123 0
-1124 0
-1125 0
-1126 0
-1127 0
-1128 0
-1129 0
-1130 0
-1131 0
-1132 0
-1133 0
-1134 0
-1135 0
-1136 0
-1137 0
-1138 0
-1139 0
-1140 0
-1141 0
-1142 0
-1143 0
-1144 0
-1145 0
-1146 0
-1147 0
-1148 0
-1149 0
-1150 0
-1151 0
-1152 0
-1153 0
-1154 0
-1155 0
-1156 0
-1157 0
-1158 0
-1159 0
-1160 0
-1161 0
-1162 0
-1163 0
-1164 0
-1165 0
-1166 0
-1167 0
-1168 0
-1169 0
-1170 0
-1171 0
-1172 0
-1173 0
-1174 0
-1175 0
-1176 0
-1177 0
-1178 0
-1179 0
-1180 0
-1181 0
-1182 0
-1183 0
-1184 0
-1185 0
-1186 0
-1187 0
-1188 0
-1189 0
-1190 0
-1191 0
-1192 0
-1193 0
-1194 0
-1195 0
-1196 0
-1197 0
-1198 0
-1199 0
-1200 0
-1201 0
-1202 0
-1203 0
-1204 0
-1205 0
-1206 0
-1207 0
-1208 0
-1209 0
-1210 0
-1211 0
-1212 0
-1213 0
-1214 0
-1215 0
-1216 0
-1217 0
-1218 0
-1219 0
-1220 0
-1221 0
-1222 0
-1223 0
-1224 0
-1225 0
-1226 0
-1227 0
-1228 0
-1229 0
-1230 0
-1231 0
-1232 0
-1233 0
-1234 0
-1235 0
-1236 0
-1237 0
-1238 0
-1239 0
-1240 0
-1241 0
-1242 0
-1243 0
-1244 0
-1245 0
-1246 0
-1247 0
-1248 0
-1249 0
-1250 0
-1251 0
-1252 0
-1253 0
-1254 0
-1255 0
-1256 0
-1257 0
-1258 0
-1259 0
-1260 0
-1261 0
-1262 0
-1263 0
-1264 0
-1265 0
-1266 0
-1267 0
-1268 0
-1269 0
-1270 0
-1271 0
-1272 0
-1273 0
-1274 0
-1275 0
-1276 0
-1277 0
-1278 0
-1279 0
-1280 0
-1281 0
-1282 0
-1283 0
-1284 0
-1285 0
-1286 0
-1287 0
-1288 0
-1289 0
-1290 0
-1291 0
-1292 0
-1293 0
-1294 0
-1295 0
-1296 0
-1297 0
-1298 0
-1299 0
-1300 0
-1301 0
-1302 0
-1303 0
-1304 0
-1305 0
-1306 0
-1307 0
-1308 0
-1309 0
-1310 0
-1311 0
-1312 0
-1313 0
-1314 0
-1315 0
-1316 0
-1317 0
-1318 0
-1319 0
-1320 0
-1321 0
-1322 0
-1323 0
-1324 0
-1325 0
-1326 0
-1327 0
-1328 0
-1329 0
-1330 0
-1331 0
-1332 0
-1333 0
-1334 0
-1335 0
-1336 0
-1337 0
-1338 0
-1339 0
-1340 0
-1341 0
-1342 0
-1343 0
-1344 0
-1345 0
-1346 0
-1347 0
-1348 0
-1349 0
-1350 0
-1351 0
-1352 0
-1353 0
-1354 0
-1355 0
-1356 0
-1357 0
-1358 0
-1359 0
-1360 0
-1361 0
-1362 0
-1363 0
-1364 0
-1365 0
-1366 0
-1367 0
-1368 0
-1369 0
-1370 0
-1371 0
-1372 0
-1373 0
-1374 0
-1375 0
-1376 0
-1377 0
-1378 0
-1379 0
-1380 0
-1381 0
-1382 0
-1383 0
-1384 0
-1385 0
-1386 0
-1387 0
-1388 0
-1389 0
-1390 0
-1391 0
-1392 0
-1393 0
-1394 0
-1395 0
-1396 0
-1397 0
-1398 0
-1399 0
-1400 0
-1401 0
-1402 0
-1403 0
-1404 0
-1405 0
-1406 0
-1407 0
-1408 0
-1409 0
-1410 0
-1411 0
-1412 0
-1413 0
-1414 0
-1415 0
-1416 0
-1417 0
-1418 0
-1419 0
-1420 0
-1421 0
-1422 0
-1423 0
-1424 0
-1425 0
-1426 0
-1427 0
-1428 0
-1429 0
-1430 0
-1431 0
-1432 0
-1433 0
-1434 0
-1435 0
-1436 0
-1437 0
-1438 0
-1439 0
-1440 0
-1441 0
-1442 0
-1443 0
-1444 0
-1445 0
-1446 0
-1447 0
-1448 0
-1449 0
-1450 0
-1451 0
-1452 0
-1453 0
-1454 0
-1455 0
-1456 0
-1457 0
-1458 0
-1459 0
-1460 0
-1461 0
-1462 0
-1463 0
-1464 0
-1465 0
-1466 0
-1467 0
-1468 0
-1469 0
-1470 0
-1471 0
-1472 0
-1473 0
-1474 0
-1475 0
-1476 0
-1477 0
-1478 0
-1479 0
-1480 0
-1481 0
-1482 0
-1483 0
-1484 0
-1485 0
-1486 0
-1487 0
-1488 0
-1489 0
-1490 0
-1491 0
-1492 0
-1493 0
-1494 0
-1495 0
-1496 0
-1497 0
-1498 0
-1499 0
-1500 0
-1501 0
-1502 0
-1503 0
-1504 0
-1505 0
-1506 0
-1507 0
-1508 0
-1509 0
-1510 0
-1511 0
-1512 0
-1513 0
-1514 0
-1515 0
-1516 0
-1517 0
-1518 0
-1519 0
-1520 0
-1521 0
-1522 0
-1523 0
-1524 0
-1525 0
-1526 0
-1527 0
-1528 0
-1529 0
-1530 0
-1531 0
-1532 0
-1533 0
-1534 0
-1535 0
-1536 0
-1537 0
-1538 0
-1539 0
-1540 0
-1541 0
-1542 0
-1543 0
-1544 0
-1545 0
-1546 0
-1547 0
-1548 0
-1549 0
-1550 0
-1551 0
-1552 0
-1553 0
-1554 0
-1555 0
-1556 0
-1557 0
-1558 0
-1559 0
-1560 0
-1561 0
-1562 0
-1563 0
-1564 0
-1565 0
-1566 0
-1567 0
-1568 0
-1569 0
-1570 0
-1571 0
-1572 0
-1573 0
-1574 0
-1575 0
-1576 0
-1577 0
-1578 0
-1579 0
-1580 0
-1581 0
-1582 0
-1583 0
-1584 0
-1585 0
-1586 0
-1587 0
-1588 0
-1589 0
-1590 0
-1591 0
-1592 0
-1593 0
-1594 0
-1595 0
-1596 0
-1597 0
-1598 0
-1599 0
-1600 0
-1601 0
-1602 0
-1603 0
-1604 0
-1605 0
-1606 0
-1607 0
-1608 0
-1609 0
-1610 0
-1611 0
-1612 0
-1613 0
-1614 0
-1615 0
-1616 0
-1617 0
-1618 0
-1619 0
-1620 0
-1621 0
-1622 0
-1623 0
-1624 0
-1625 0
-1626 0
-1627 0
-1628 0
-1629 0
-1630 0
-1631 0
-1632 0
-1633 0
-1634 0
-1635 0
-2 -1 0
-3 -1 0
-4 -1 0
-8 -1 0
-9 -1 0
-19 -1 0
-26 -1 0
-27 -1 0
-28 -1 0
-29 -1 0
-30 -1 0
-34 -1 0
-38 1 0
-39 1 0
-41 1 0
-43 1 0
-44 45 46 47 0
-45 44 0
-46 -45 0
-47 -45 0
-46 44 0
-46 -45 0
-47 -46 0
-47 44 0
-47 -45 0
-47 -46 0
-48 49 0
-53 -2 0
-8 -2 0
-8 -3 0
-8 -1 0
-9 -8 0
-19 -8 0
-34 -8 0
-59 8 0
-60 8 0
-61 8 0
-62 8 0
-63 8 0
-9 2 3 66 0
-9 -1 0
-9 -8 0
-19 -9 0
-26 -9 0
-34 -9 0
-73 9 0
-74 9 0
-75 9 0
-76 9 0
-88 -80 0
-97 98 99 100 0
-101 -97 0
-103 -97 0
-104 -97 0
-106 -101 0
-106 -103 0
-106 -104 0
-107 101 108 109 110 0
-111 -107 0
-113 -112 0
-114 -112 115 0
-112 114 0
-118 -113 115 0
-118 -114 0
-118 113 0
-121 -113 9 0
-121 -114 0
-121 113 0
-123 -122 0
-132 -127 0
-134 -127 0
-136 -127 0
-137 -127 0
-127 -101 0
-127 -103 0
-127 -104 0
-145 -127 0
-147 -127 0
-148 -127 0
-149 -127 0
-150 -127 0
-151 -127 0
-132 -104 0
-132 -127 0
-134 -132 0
-136 -132 0
-137 -132 0
-132 -101 0
-132 -103 0
-147 -132 0
-148 -132 0
-149 -132 0
-150 -132 0
-151 -132 0
-66 -2 0
-66 -3 0
-156 -66 0
-156 2 3 0
-156 -66 0
-174 175 0
-174 82 0
-174 86 0
-174 172 0
-174 176 0
-174 9 0
-174 177 0
-174 178 0
-174 79 0
-174 80 0
-174 179 0
-174 180 0
-181 -101 0
-187 81 0
-187 188 0
-187 172 0
-187 176 0
-187 80 0
-187 179 0
-134 -127 0
-134 -132 0
-136 -134 0
-137 -134 0
-134 -101 0
-134 -103 0
-134 -104 0
-147 -134 0
-148 -134 0
-149 -134 0
-150 -134 0
-151 -134 0
-189 134 136 137 148 149 150 151 0
-189 -101 0
-189 -103 0
-189 -104 0
-136 -127 0
-136 -132 0
-137 -136 0
-136 -101 0
-136 -103 0
-136 -104 0
-147 -136 0
-148 -136 0
-149 -136 0
-150 -136 0
-151 -136 0
-137 -127 0
-137 -132 0
-137 -134 0
-137 -136 0
-137 -101 0
-137 -103 0
-137 -104 0
-147 -137 0
-148 -137 0
-149 -137 0
-150 -137 0
-151 -137 0
-192 -101 0
-192 -103 0
-193 175 0
-193 82 0
-193 86 0
-193 172 0
-193 176 0
-193 177 0
-193 115 0
-193 79 0
-193 179 0
-193 97 0
-193 194 0
-195 196 0
-195 -101 0
-195 -103 0
-195 -104 0
-198 196 0
-199 -198 0
-111 196 0
-111 -107 0
-203 196 0
-203 -101 0
-203 -103 0
-203 -104 0
-99 -98 0
-196 -98 0
-99 -98 0
-100 -99 0
-101 -99 0
-103 -99 0
-151 -99 0
-100 196 0
-100 -99 0
-101 -100 0
-103 -100 0
-104 -100 0
-265 147 148 149 150 0
-265 -127 0
-266 -265 0
-265 -101 0
-265 -103 0
-265 -145 0
-266 147 148 149 150 0
-266 -127 0
-266 -265 0
-266 -101 0
-266 -103 0
-266 -145 0
-19 3 0
-270 -19 0
-19 -1 0
-19 -8 0
-19 -9 0
-26 -19 0
-27 -19 0
-28 -19 0
-29 -19 0
-30 -19 0
-34 -19 0
-277 9 0
-277 278 0
-277 -194 0
-279 19 0
-280 19 0
-282 19 0
-284 -283 0
-286 19 0
-287 -98 0
-287 -207 0
-288 -287 0
-289 -287 0
-207 -98 0
-287 -207 0
-288 -207 0
-289 -207 0
-288 -98 0
-288 -287 0
-288 -207 0
-289 -288 0
-289 -98 0
-289 -287 0
-289 -207 0
-289 -288 0
-293 124 0
-293 243 0
-177 4 49 81 175 216 245 0
-177 4 49 82 175 188 216 245 260 0
-297 -177 49 81 216 245 0
-297 -177 49 188 216 245 260 0
-236 -177 0
-236 49 81 216 245 0
-236 49 188 216 245 260 0
-236 -177 0
-196 -98 0
-196 -101 0
-196 -103 0
-196 -104 0
-196 -2 0
-313 4 49 81 0
-314 306 0
-315 98 0
-316 101 0
-316 -103 0
-316 -104 0
-297 -177 0
-297 -236 0
-325 -324 0
-88 -80 0
-329 -328 0
-338 -328 0
-354 -328 0
-284 -101 0
-284 -103 0
-284 -104 0
-424 -101 0
-392 -101 0
-389 -101 0
-386 -101 0
-338 -101 0
-329 -101 0
-284 -101 0
-234 -101 0
-203 -101 0
-196 -101 0
-195 -101 0
-192 -101 0
-189 -101 0
-181 -101 0
-150 -101 0
-149 -101 0
-148 -101 0
-147 -101 0
-137 -101 0
-136 -101 0
-134 -101 0
-132 -101 0
-127 -101 0
-106 -101 0
-104 -101 0
-103 -101 0
-101 -100 0
-101 -99 0
-101 -97 0
-101 82 0
-101 81 0
-101 3 0
-476 -103 0
-474 -103 0
-469 -103 0
-424 -103 0
-392 -103 0
-389 -103 0
-338 -103 0
-329 -103 0
-316 -103 0
-284 -103 0
-234 -103 0
-203 -103 0
-196 -103 0
-195 -103 0
-192 -103 0
-189 -103 0
-150 -103 0
-149 -103 0
-148 -103 0
-147 -103 0
-137 -103 0
-136 -103 0
-134 -103 0
-132 -103 0
-127 -103 0
-107 -103 0
-106 -103 0
-104 -103 0
-103 -101 0
-103 -100 0
-103 -99 0
-103 -97 0
-103 3 0
-234 -101 0
-234 -103 0
-234 -104 0
-26 270 0
-26 -1 0
-26 -9 0
-26 -19 0
-34 -26 0
-205 4 278 0
-27 26 0
-27 -1 0
-27 -9 0
-27 -19 0
-34 -27 0
-28 -27 0
-29 -27 0
-30 -27 0
-28 26 0
-28 -1 0
-28 -9 0
-28 -19 0
-34 -28 0
-28 -27 0
-29 -28 0
-30 -28 0
-29 26 0
-29 -1 0
-29 -9 0
-29 -19 0
-34 -29 0
-29 -27 0
-29 -28 0
-30 -29 0
-30 26 0
-30 -1 0
-30 -9 0
-30 -19 0
-34 -30 0
-30 -27 0
-30 -28 0
-30 -29 0
-469 210 0
-469 -103 0
-469 -386 0
-469 -104 0
-502 -469 0
-503 -469 0
-504 -469 0
-505 -469 0
-506 -469 0
-507 -469 0
-508 -469 0
-509 -469 0
-510 -469 0
-511 -469 0
-386 210 0
-469 -386 0
-386 -316 0
-386 -101 0
-386 -108 0
-512 -386 0
-513 -386 0
-514 -386 0
-515 -386 0
-516 -386 0
-517 -386 0
-518 -386 0
-519 -386 0
-520 -386 0
-521 -386 0
-522 -386 0
-523 -386 0
-524 -386 0
-525 -386 0
-526 -386 0
-527 -386 0
-528 -386 0
-529 -2 0
-469 -104 0
-424 -104 0
-392 -104 0
-389 -104 0
-316 -104 0
-284 -104 0
-234 -104 0
-203 -104 0
-196 -104 0
-195 -104 0
-189 -104 0
-137 -104 0
-136 -104 0
-134 -104 0
-132 -104 0
-127 -104 0
-106 -104 0
-104 -103 0
-104 -101 0
-104 -100 0
-104 -97 0
-329 -101 0
-329 -103 0
-329 -104 0
-338 -329 0
-389 -101 0
-389 -103 0
-389 -104 0
-389 -354 0
-338 -101 0
-338 -103 0
-338 -329 0
-392 -101 0
-392 -103 0
-544 -392 0
-392 -104 0
-34 2 0
-270 -34 0
-34 -1 0
-34 -8 0
-34 -9 0
-34 -19 0
-34 -26 0
-34 -27 0
-34 -28 0
-34 -29 0
-34 -30 0
-235 239 0
-235 -199 -103 0
-549 34 0
-550 34 0
-551 392 0
-552 34 0
-325 103 509 0
-325 -324 0
-325 -101 0
-474 -325 0
-474 104 505 508 554 555 556 557 558 559 0
-474 -101 0
-474 -325 0
-389 -354 0
-145 136 137 0
-145 -127 0
-265 -145 0
-266 -145 0
-147 -127 0
-147 -132 0
-147 -134 0
-147 -136 0
-147 -137 0
-147 -101 0
-147 -103 0
-148 -147 0
-149 -147 0
-150 -147 0
-151 -147 0
-148 -127 0
-148 -132 0
-148 -134 0
-148 -136 0
-148 -137 0
-148 -101 0
-148 -103 0
-148 -147 0
-149 -148 0
-150 -148 0
-151 -148 0
-149 -127 0
-149 -132 0
-149 -134 0
-149 -136 0
-149 -137 0
-149 -101 0
-149 -103 0
-149 -147 0
-149 -148 0
-150 -149 0
-151 -149 0
-150 -127 0
-150 -132 0
-150 -134 0
-150 -136 0
-150 -137 0
-150 -101 0
-150 -103 0
-150 -147 0
-150 -148 0
-150 -149 0
-151 -150 0
-123 9 27 28 29 30 0
-123 194 0
-123 -101 0
-123 -104 0
-123 -122 0
-194 278 0
-277 -194 0
-574 216 0
-574 108 0
-574 -97 0
-574 -160 0
-151 196 0
-151 108 0
-151 -127 0
-151 -134 0
-151 -136 0
-151 -137 0
-151 -99 0
-151 -101 0
-151 -103 0
-151 -104 0
-151 -147 0
-151 -148 0
-151 -149 0
-151 -150 0
-476 196 0
-476 108 502 512 514 515 516 517 518 520 521 522 524 544 575 576 577 578 0
-424 -199 0
-424 -101 0
-424 -103 0
-424 -104 0
-2 180 0
-196 -2 0
-3 -2 0
-3 180 0
-3 -2 0
-598 4 49 81 175 216 245 0
-598 4 49 82 175 188 216 245 260 0
-598 4 81 175 177 297 0
-598 4 82 175 177 297 0
-599 -598 0
-599 49 81 216 245 0
-599 49 188 216 245 260 0
-599 -177 0
-599 -297 0
-599 -598 0
-602 4 49 0
-602 49 270 0
-602 4 233 0
-602 233 270 0
-602 -86 0
-86 175 216 245 0
-602 -86 0
-199 -113 81 0
-199 -113 82 188 0
-199 -114 0
-199 113 0
-113 -81 82 188 260 0
-114 -81 82 188 260 0
-81 -4 0
-216 -81 0
-245 -81 0
-175 -81 0
-4 83 270 0
-81 -4 0
-216 -4 0
-245 -4 0
-175 -4 0
-233 49 0
-233 -217 0
-260 -233 0
-246 -233 0
-233 -188 0
-233 -82 0
-233 -83 0
-270 -233 0
-217 216 0
-217 86 0
-233 -217 0
-260 -217 0
-246 -217 0
-217 -188 0
-217 -82 0
-217 -83 0
-270 -217 0
-260 81 0
-260 -233 0
-260 -217 0
-260 -246 0
-260 -188 0
-260 -82 0
-260 -83 0
-270 -260 0
-246 245 0
-246 86 0
-246 -233 0
-246 -217 0
-260 -246 0
-246 -188 0
-246 -82 0
-246 -83 0
-270 -246 0
-49 233 0
-49 48 602 0
-188 81 0
-233 -188 0
-217 -188 0
-260 -188 0
-246 -188 0
-188 -82 0
-188 -83 0
-270 -188 0
-82 81 175 0
-82 81 86 0
-233 -82 0
-217 -82 0
-260 -82 0
-246 -82 0
-188 -82 0
-83 -82 0
-270 -82 0
-83 4 0
-233 -83 0
-217 -83 0
-260 -83 0
-246 -83 0
-188 -83 0
-83 -82 0
-270 -83 0
-270 4 0
-270 -233 0
-270 -217 0
-270 -260 0
-270 -246 0
-270 -188 0
-270 -82 0
-270 -83 0
-216 217 0
-216 86 0
-216 -81 0
-216 -4 0
-245 -216 0
-216 -175 0
-245 246 0
-245 86 0
-245 -81 0
-245 -4 0
-245 -216 0
-245 -175 0
-175 82 0
-175 86 0
-175 -81 0
-175 -4 0
-216 -175 0
-245 -175 0
-634 216 0
-634 217 0
-38 1 8 9 19 26 27 28 29 30 34 0
-39 1 8 9 19 26 27 28 29 30 34 0
-41 1 8 9 19 26 27 28 29 30 34 0
-43 1 8 9 19 26 27 28 29 30 34 0
-45 44 0
-46 44 0
-47 44 0
-59 1 8 9 19 34 0
-60 1 8 9 19 34 0
-61 1 8 9 19 34 0
-62 1 8 9 19 34 0
-63 1 8 9 19 34 0
-73 1 8 9 19 26 34 0
-74 1 8 9 19 26 34 0
-75 1 8 9 19 26 34 0
-76 1 8 9 19 26 34 0
-82 -81 80 88 0
-83 -4 80 88 0
-293 124 0
-2 124 0
-3 124 0
-112 115 0
-118 115 0
-9 2 3 66 156 0
-101 169 0
-638 108 0
-639 108 0
-640 108 0
-641 108 0
-174 172 0
-187 172 0
-193 172 0
-315 98 99 196 0
-134 98 99 100 101 103 151 0
-136 98 99 100 101 103 151 0
-137 98 99 100 101 103 151 0
-240 231 0
-261 231 0
-279 1 8 9 19 26 27 28 29 30 34 0
-280 1 8 9 19 26 27 28 29 30 34 0
-282 1 8 9 19 26 27 28 29 30 34 0
-286 1 8 9 19 26 27 28 29 30 34 0
-82 -81 177 236 297 0
-4 177 236 297 0
-175 177 236 297 0
-314 306 0
-101 319 0
-293 319 0
80 88 0
-737 101 103 104 283 284 0
-736 101 103 104 283 284 0
-735 101 103 104 283 284 0
-734 101 103 104 283 284 0
-733 101 103 104 283 284 0
-732 101 103 104 283 284 0
-731 101 103 104 283 284 0
-730 101 103 104 283 284 0
-729 101 103 104 283 284 0
-728 101 103 104 283 284 0
-727 101 103 104 283 284 0
-726 101 103 104 283 284 0
-725 101 103 104 283 284 0
-724 101 103 104 283 284 0
-723 101 103 104 283 284 0
-722 101 103 104 283 284 0
-721 101 103 104 283 284 0
-720 101 103 104 283 284 0
-719 101 103 104 283 284 0
-718 101 103 104 283 284 0
-717 101 103 104 283 284 0
-716 101 103 104 283 284 0
-715 101 103 104 283 284 0
-714 101 103 104 283 284 0
-713 101 103 104 283 284 0
-712 101 103 104 283 284 0
-711 101 103 104 283 284 0
-710 101 103 104 283 284 0
-709 101 103 104 283 284 0
-708 101 103 104 283 284 0
-707 101 103 104 283 284 0
-706 101 103 104 283 284 0
-705 101 103 104 283 284 0
-704 101 103 104 283 284 0
-703 101 103 104 283 284 0
-702 101 103 104 283 284 0
-701 101 103 104 283 284 0
-700 101 103 104 283 284 0
-699 101 103 104 283 284 0
-698 101 103 104 283 284 0
-697 101 103 104 283 284 0
-696 101 103 104 283 284 0
-695 101 103 104 283 284 0
-694 101 103 104 283 284 0
-693 101 103 104 283 284 0
-692 101 103 104 283 284 0
-554 101 103 104 283 284 0
-551 101 103 104 283 284 0
-528 101 103 104 283 284 0
-527 101 103 104 283 284 0
-503 101 103 104 283 284 0
-293 243 0
-103 243 0
-4 180 0
-2 4 180 0
-3 4 180 0
-101 4 180 0
-103 4 180 0
-27 1 9 19 26 34 0
-28 1 9 19 26 34 0
-29 1 9 19 26 34 0
-30 1 9 19 26 34 0
-4 205 0
-469 210 0
-386 210 0
-4 278 0
-194 4 278 0
-205 4 278 0
-551 101 103 104 392 544 0
-549 1 8 9 19 26 27 28 29 30 34 0
-550 1 8 9 19 26 27 28 29 30 34 0
-552 1 8 9 19 26 27 28 29 30 34 0
-260 -177 -81 598 599 0
-188 -177 -81 598 599 0
-177 -49 598 599 0
-216 -177 598 599 0
-245 -177 598 599 0
-297 -260 -81 598 599 0
-297 -188 -81 598 599 0
-297 -49 598 599 0
-297 -216 598 599 0
-297 -245 598 599 0
-82 -81 598 599 0
-4 598 599 0
-175 598 599 0
-260 -81 177 297 598 599 0
-188 -81 177 297 598 599 0
-49 177 297 598 599 0
-216 177 297 598 599 0
-245 177 297 598 599 0
113 114 0
-114 -113 0
82 83 188 217 233 246 260 602 0
82 83 188 217 233 246 260 270 0
82 83 188 217 233 245 260 602 0
82 83 188 217 233 245 260 270 0
82 83 188 216 233 246 260 602 0
82 83 188 216 233 246 260 270 0
82 83 188 216 233 245 260 602 0
82 83 188 216 233 245 260 270 0
82 83 86 188 233 260 602 0
82 83 86 188 233 260 270 0
81 83 175 217 233 246 602 0
81 83 175 217 233 246 270 0
81 83 175 217 233 245 602 0
81 83 175 217 233 245 270 0
81 83 175 216 233 246 602 0
81 83 175 216 233 246 270 0
81 83 175 216 233 245 602 0
81 83 175 216 233 245 270 0
81 83 86 233 602 0
81 83 86 233 270 0
81 82 83 217 233 246 602 0
81 82 83 217 233 246 270 0
81 82 83 217 233 245 602 0
81 82 83 217 233 245 270 0
81 82 83 216 233 246 602 0
81 82 83 216 233 246 270 0
81 82 83 216 233 245 602 0
81 82 83 216 233 245 270 0
49 82 83 188 217 246 260 602 0
49 82 83 188 217 246 260 270 0
49 82 83 188 217 245 260 602 0
49 82 83 188 217 245 260 270 0
49 82 83 188 216 246 260 602 0
49 82 83 188 216 246 260 270 0
49 82 83 188 216 245 260 602 0
49 82 83 188 216 245 260 270 0
49 82 83 86 188 260 602 0
49 82 83 86 188 260 270 0
49 81 83 175 217 246 602 0
49 81 83 175 217 246 270 0
49 81 83 175 217 245 602 0
49 81 83 175 217 245 270 0
49 81 83 175 216 246 602 0
49 81 83 175 216 246 270 0
49 81 83 175 216 245 602 0
49 81 83 175 216 245 270 0
49 81 83 86 602 0
49 81 83 86 270 0
49 81 82 83 217 246 602 0
49 81 82 83 217 246 270 0
49 81 82 83 217 245 602 0
49 81 82 83 217 245 270 0
49 81 82 83 216 246 602 0
49 81 82 83 216 246 270 0
49 81 82 83 216 245 602 0
49 81 82 83 216 245 270 0
4 82 188 217 233 246 260 0
4 82 188 217 233 245 260 0
4 82 188 216 233 246 260 0
4 82 188 216 233 245 260 0
4 82 86 188 233 260 0
4 81 175 217 233 246 0
4 81 175 217 233 245 0
4 81 175 216 233 246 0
4 81 175 216 233 245 0
4 81 86 233 0
4 81 82 217 233 246 0
4 81 82 217 233 245 0
4 81 82 216 233 246 0
4 81 82 216 233 245 0
4 49 82 188 217 246 260 0
4 49 82 188 217 245 260 0
4 49 82 188 216 246 260 0
4 49 82 188 216 245 260 0
4 49 82 86 188 260 0
4 49 81 175 217 246 0
4 49 81 175 217 245 0
4 49 81 175 216 246 0
4 49 81 175 216 245 0
4 49 81 86 0
4 49 81 82 217 246 0
4 49 81 82 217 245 0
4 49 81 82 216 246 0
4 49 81 82 216 245 0
